(declare-fun bvlambda_13_ () (_ BitVec 11))
(declare-fun a102 () (Array (_ BitVec 1) (_ BitVec 6)))
(assert
(let (($e1 (_ bv0 1)))
(let (($e11 (_ bv0 5)))
(let (($e122 ((_ extract 7 2) bvlambda_13_)))
(let (($e130 (   extract        $e122)))
(let (($e131 (store a102 $e130 $e122)))
(let (($e134 (   extract      bvlambda_13_)))
(let (($e139 (store a102  $e1 $e122)))
(let (($e140 (select $e139 $e134)))
(let (($e376 (select a102 false )))
(let (($e566      (=        $e376 $e140)         ))
(let (($e567 (concat $e11        $e566 )))
(let (($e568 (bvand        $e140         $e567 )))
(let (($e844 (select $e131 (not false))))
(let (($e845 (   extract      $e844)))
(let (($e857 (   extract      $e568)))
                  (= $e857 $e845)
                                                                                                                                                                                                                                                                                                                                                                                                                                                                                                                                                                                                    )           ))                                                                                                                                                                                                                                                                                   )))                                                                                                                                                                                             )                                                                                                                                                                                                                                           ))    )  ))       )                                                                                     )         ))
